solution status: optimal solution found
objective value:                                    1
x38                                                 1 	(obj:1)
$_196_y                                            22 	(obj:0)
$_196_z                                            23 	(obj:0)
$_101_y                                            20 	(obj:0)
$_101_z                                            20 	(obj:0)
$_19__4_y                                         -22 	(obj:0)
$_19__4_z                                          21 	(obj:0)
$_23__4_y                                           6 	(obj:0)
$_23__4_z                                          20 	(obj:0)
$_18__4_y                                          -2 	(obj:0)
$_18__4_z                                          21 	(obj:0)
$_224_y                                            21 	(obj:0)
$_224_z                                            19 	(obj:0)
$_22__4_y                                           7 	(obj:0)
$_22__4_z                                          21 	(obj:0)
$_155_y                                            23 	(obj:0)
$_155_z                                            23 	(obj:0)
$_100_y                                            20 	(obj:0)
$_100_z                                            19 	(obj:0)
$_21__4_y                                          -2 	(obj:0)
$_21__4_z                                          23 	(obj:0)
$_24__4_y                                          22 	(obj:0)
$_24__4_z                                          18 	(obj:0)
$_20__4_y                                          -2 	(obj:0)
$_20__4_z                                          20 	(obj:0)
$_183_y                                            19 	(obj:0)
$_183_z                                            19 	(obj:0)
$_277_y                                            22 	(obj:0)
$_277_z                                            22 	(obj:0)
$_25__4_y                                           6 	(obj:0)
$_25__4_z                                          19 	(obj:0)
$_237_y                                            24 	(obj:0)
$_237_z                                            23 	(obj:0)
$_265_y                                            22 	(obj:0)
$_265_z                                            19 	(obj:0)
